\Problem name: compact

Minimize
OBJROW: C
Subject To
ord(0,1):  x(0,0) - x(0,1) >= 3
ord(0,2):  - x(0,0) + x(0,2) >= 2
ord(1,1):  - x(1,0) + x(1,1) >= 1
ord(1,2):  - x(1,1) + x(1,2) >= 9
ord(2,1):  - x(2,0) + x(2,1) >= 7
ord(2,2):  - x(2,1) + x(2,2) >= 1
ord(3,1):  x(3,0) - x(3,1) >= 2
ord(3,2):  - x(3,0) + x(3,2) >= 7
triangle2(0,1,0):  y(0,1,0) + y(1,0,0) = 1
triangle2(0,1,1):  y(0,1,1) + y(1,0,1) = 1
triangle2(0,1,2):  y(0,1,2) + y(1,0,2) = 1
triangle2(0,2,0):  y(0,2,0) + y(2,0,0) = 1
triangle2(0,2,1):  y(0,2,1) + y(2,0,1) = 1
triangle2(0,2,2):  y(0,2,2) + y(2,0,2) = 1
triangle2(0,3,0):  y(0,3,0) + y(3,0,0) = 1
triangle2(0,3,1):  y(0,3,1) + y(3,0,1) = 1
triangle2(0,3,2):  y(0,3,2) + y(3,0,2) = 1
triangle2(1,2,0):  y(1,2,0) + y(2,1,0) = 1
triangle2(1,2,1):  y(1,2,1) + y(2,1,1) = 1
triangle2(1,2,2):  y(1,2,2) + y(2,1,2) = 1
triangle2(1,3,0):  y(1,3,0) + y(3,1,0) = 1
triangle2(1,3,1):  y(1,3,1) + y(3,1,1) = 1
triangle2(1,3,2):  y(1,3,2) + y(3,1,2) = 1
triangle2(2,3,0):  y(2,3,0) + y(3,2,0) = 1
triangle2(2,3,1):  y(2,3,1) + y(3,2,1) = 1
triangle2(2,3,2):  y(2,3,2) + y(3,2,2) = 1
MCLinV(0,1,0):  x(0,0) - v(0,1,0) - x(1,0) = 1
MCLinV(1,0,0):  - x(0,0) - v(1,0,0) + x(1,0) = 2
MCLin1(0,1,0):  u(0,1,0) >= -0
MCLin2(0,1,0):  -28 y(1,0,0) - u(0,1,0) <= -0
MCLin3(0,1,0):  43 y(1,0,0) + v(0,1,0) - u(0,1,0) <= 43
MCLin4(0,1,0):  43 y(1,0,0) - u(0,1,0) >= -0
MCLin5(0,1,0):  -28 y(1,0,0) + v(0,1,0) - u(0,1,0) >= -28
MCLin6(1,0,0):  u(1,0,0) >= -0
MCLin7(1,0,0):  -46 y(0,1,0) - u(1,0,0) <= -0
MCLin8(1,0,0):  25 y(0,1,0) + v(1,0,0) - u(1,0,0) <= 25
MCLin9(1,0,0):  25 y(0,1,0) - u(1,0,0) >= -0
MCLin10(1,0,0):  -46 y(0,1,0) + v(1,0,0) - u(1,0,0) >= -46
MCLinV(0,1,1):  x(0,1) - v(0,1,1) - x(1,1) = 9
MCLinV(1,0,1):  - x(0,1) - v(1,0,1) + x(1,1) = 3
MCLin1(0,1,1):  u(0,1,1) >= -0
MCLin2(0,1,1):  -40 y(1,0,1) - u(0,1,1) <= -0
MCLin3(0,1,1):  31 y(1,0,1) + v(0,1,1) - u(0,1,1) <= 31
MCLin4(0,1,1):  31 y(1,0,1) - u(0,1,1) >= -0
MCLin5(0,1,1):  -40 y(1,0,1) + v(0,1,1) - u(0,1,1) >= -40
MCLin6(1,0,1):  u(1,0,1) >= -0
MCLin7(1,0,1):  -43 y(0,1,1) - u(1,0,1) <= -0
MCLin8(1,0,1):  28 y(0,1,1) + v(1,0,1) - u(1,0,1) <= 28
MCLin9(1,0,1):  28 y(0,1,1) - u(1,0,1) >= -0
MCLin10(1,0,1):  -43 y(0,1,1) + v(1,0,1) - u(1,0,1) >= -43
MCLinV(0,1,2):  x(0,2) - v(0,1,2) - x(1,2) = 9
MCLinV(1,0,2):  - x(0,2) - v(1,0,2) + x(1,2) = 3
MCLin1(0,1,2):  u(0,1,2) >= -0
MCLin2(0,1,2):  -44 y(1,0,2) - u(0,1,2) <= -0
MCLin3(0,1,2):  27 y(1,0,2) + v(0,1,2) - u(0,1,2) <= 27
MCLin4(0,1,2):  27 y(1,0,2) - u(0,1,2) >= -0
MCLin5(0,1,2):  -44 y(1,0,2) + v(0,1,2) - u(0,1,2) >= -44
MCLin6(1,0,2):  u(1,0,2) >= -0
MCLin7(1,0,2):  -39 y(0,1,2) - u(1,0,2) <= -0
MCLin8(1,0,2):  32 y(0,1,2) + v(1,0,2) - u(1,0,2) <= 32
MCLin9(1,0,2):  32 y(0,1,2) - u(1,0,2) >= -0
MCLin10(1,0,2):  -39 y(0,1,2) + v(1,0,2) - u(1,0,2) >= -39
MCLinV(0,2,0):  x(0,0) - v(0,2,0) - x(2,0) = 7
MCLinV(2,0,0):  - x(0,0) - v(2,0,0) + x(2,0) = 2
MCLin1(0,2,0):  u(0,2,0) >= -0
MCLin2(0,2,0):  -42 y(2,0,0) - u(0,2,0) <= -0
MCLin3(0,2,0):  37 y(2,0,0) + v(0,2,0) - u(0,2,0) <= 37
MCLin4(0,2,0):  37 y(2,0,0) - u(0,2,0) >= -0
MCLin5(0,2,0):  -42 y(2,0,0) + v(0,2,0) - u(0,2,0) >= -42
MCLin6(2,0,0):  u(2,0,0) >= -0
MCLin7(2,0,0):  -46 y(0,2,0) - u(2,0,0) <= -0
MCLin8(2,0,0):  33 y(0,2,0) + v(2,0,0) - u(2,0,0) <= 33
MCLin9(2,0,0):  33 y(0,2,0) - u(2,0,0) >= -0
MCLin10(2,0,0):  -46 y(0,2,0) + v(2,0,0) - u(2,0,0) >= -46
MCLinV(0,2,1):  x(0,1) - v(0,2,1) - x(2,1) = 1
MCLinV(2,0,1):  - x(0,1) - v(2,0,1) + x(2,1) = 3
MCLin1(0,2,1):  u(0,2,1) >= -0
MCLin2(0,2,1):  -46 y(2,0,1) - u(0,2,1) <= -0
MCLin3(0,2,1):  33 y(2,0,1) + v(0,2,1) - u(0,2,1) <= 33
MCLin4(0,2,1):  33 y(2,0,1) - u(0,2,1) >= -0
MCLin5(0,2,1):  -46 y(2,0,1) + v(0,2,1) - u(0,2,1) >= -46
MCLin6(2,0,1):  u(2,0,1) >= -0
MCLin7(2,0,1):  -37 y(0,2,1) - u(2,0,1) <= -0
MCLin8(2,0,1):  42 y(0,2,1) + v(2,0,1) - u(2,0,1) <= 42
MCLin9(2,0,1):  42 y(0,2,1) - u(2,0,1) >= -0
MCLin10(2,0,1):  -37 y(0,2,1) + v(2,0,1) - u(2,0,1) >= -37
MCLinV(0,2,2):  x(0,2) - v(0,2,2) - x(2,2) = 3
MCLinV(2,0,2):  - x(0,2) - v(2,0,2) + x(2,2) = 3
MCLin1(0,2,2):  u(0,2,2) >= -0
MCLin2(0,2,2):  -44 y(2,0,2) - u(0,2,2) <= -0
MCLin3(0,2,2):  35 y(2,0,2) + v(0,2,2) - u(0,2,2) <= 35
MCLin4(0,2,2):  35 y(2,0,2) - u(0,2,2) >= -0
MCLin5(0,2,2):  -44 y(2,0,2) + v(0,2,2) - u(0,2,2) >= -44
MCLin6(2,0,2):  u(2,0,2) >= -0
MCLin7(2,0,2):  -41 y(0,2,2) - u(2,0,2) <= -0
MCLin8(2,0,2):  38 y(0,2,2) + v(2,0,2) - u(2,0,2) <= 38
MCLin9(2,0,2):  38 y(0,2,2) - u(2,0,2) >= -0
MCLin10(2,0,2):  -41 y(0,2,2) + v(2,0,2) - u(2,0,2) >= -41
MCLinV(0,3,0):  x(0,0) - v(0,3,0) - x(3,0) = 7
MCLinV(3,0,0):  - x(0,0) - v(3,0,0) + x(3,0) = 2
MCLin1(0,3,0):  u(0,3,0) >= -0
MCLin2(0,3,0):  -44 y(3,0,0) - u(0,3,0) <= -0
MCLin3(0,3,0):  35 y(3,0,0) + v(0,3,0) - u(0,3,0) <= 35
MCLin4(0,3,0):  35 y(3,0,0) - u(0,3,0) >= -0
MCLin5(0,3,0):  -44 y(3,0,0) + v(0,3,0) - u(0,3,0) >= -44
MCLin6(3,0,0):  u(3,0,0) >= -0
MCLin7(3,0,0):  -44 y(0,3,0) - u(3,0,0) <= -0
MCLin8(3,0,0):  35 y(0,3,0) + v(3,0,0) - u(3,0,0) <= 35
MCLin9(3,0,0):  35 y(0,3,0) - u(3,0,0) >= -0
MCLin10(3,0,0):  -44 y(0,3,0) + v(3,0,0) - u(3,0,0) >= -44
MCLinV(0,3,1):  x(0,1) - v(0,3,1) - x(3,1) = 2
MCLinV(3,0,1):  - x(0,1) - v(3,0,1) + x(3,1) = 3
MCLin1(0,3,1):  u(0,3,1) >= -0
MCLin2(0,3,1):  -40 y(3,0,1) - u(0,3,1) <= -0
MCLin3(0,3,1):  39 y(3,0,1) + v(0,3,1) - u(0,3,1) <= 39
MCLin4(0,3,1):  39 y(3,0,1) - u(0,3,1) >= -0
MCLin5(0,3,1):  -40 y(3,0,1) + v(0,3,1) - u(0,3,1) >= -40
MCLin6(3,0,1):  u(3,0,1) >= -0
MCLin7(3,0,1):  -44 y(0,3,1) - u(3,0,1) <= -0
MCLin8(3,0,1):  35 y(0,3,1) + v(3,0,1) - u(3,0,1) <= 35
MCLin9(3,0,1):  35 y(0,3,1) - u(3,0,1) >= -0
MCLin10(3,0,1):  -44 y(0,3,1) + v(3,0,1) - u(3,0,1) >= -44
MCLinV(0,3,2):  x(0,2) - v(0,3,2) - x(3,2) = 2
MCLinV(3,0,2):  - x(0,2) - v(3,0,2) + x(3,2) = 3
MCLin1(0,3,2):  u(0,3,2) >= -0
MCLin2(0,3,2):  -44 y(3,0,2) - u(0,3,2) <= -0
MCLin3(0,3,2):  35 y(3,0,2) + v(0,3,2) - u(0,3,2) <= 35
MCLin4(0,3,2):  35 y(3,0,2) - u(0,3,2) >= -0
MCLin5(0,3,2):  -44 y(3,0,2) + v(0,3,2) - u(0,3,2) >= -44
MCLin6(3,0,2):  u(3,0,2) >= -0
MCLin7(3,0,2):  -40 y(0,3,2) - u(3,0,2) <= -0
MCLin8(3,0,2):  39 y(0,3,2) + v(3,0,2) - u(3,0,2) <= 39
MCLin9(3,0,2):  39 y(0,3,2) - u(3,0,2) >= -0
MCLin10(3,0,2):  -40 y(0,3,2) + v(3,0,2) - u(3,0,2) >= -40
MCLinV(1,2,0):  x(1,0) - v(1,2,0) - x(2,0) = 7
MCLinV(2,1,0):  - x(1,0) - v(2,1,0) + x(2,0) = 1
MCLin1(1,2,0):  u(1,2,0) >= -0
MCLin2(1,2,0):  -45 y(2,1,0) - u(1,2,0) <= -0
MCLin3(1,2,0):  23 y(2,1,0) + v(1,2,0) - u(1,2,0) <= 23
MCLin4(1,2,0):  23 y(2,1,0) - u(1,2,0) >= -0
MCLin5(1,2,0):  -45 y(2,1,0) + v(1,2,0) - u(1,2,0) >= -45
MCLin6(2,1,0):  u(2,1,0) >= -0
MCLin7(2,1,0):  -31 y(1,2,0) - u(2,1,0) <= -0
MCLin8(2,1,0):  37 y(1,2,0) + v(2,1,0) - u(2,1,0) <= 37
MCLin9(2,1,0):  37 y(1,2,0) - u(2,1,0) >= -0
MCLin10(2,1,0):  -31 y(1,2,0) + v(2,1,0) - u(2,1,0) >= -31
MCLinV(1,2,1):  x(1,1) - v(1,2,1) - x(2,1) = 1
MCLinV(2,1,1):  - x(1,1) - v(2,1,1) + x(2,1) = 9
MCLin1(1,2,1):  u(1,2,1) >= -0
MCLin2(1,2,1):  -45 y(2,1,1) - u(1,2,1) <= -0
MCLin3(1,2,1):  23 y(2,1,1) + v(1,2,1) - u(1,2,1) <= 23
MCLin4(1,2,1):  23 y(2,1,1) - u(1,2,1) >= -0
MCLin5(1,2,1):  -45 y(2,1,1) + v(1,2,1) - u(1,2,1) >= -45
MCLin6(2,1,1):  u(2,1,1) >= -0
MCLin7(2,1,1):  -33 y(1,2,1) - u(2,1,1) <= -0
MCLin8(2,1,1):  35 y(1,2,1) + v(2,1,1) - u(2,1,1) <= 35
MCLin9(2,1,1):  35 y(1,2,1) - u(2,1,1) >= -0
MCLin10(2,1,1):  -33 y(1,2,1) + v(2,1,1) - u(2,1,1) >= -33
MCLinV(1,2,2):  x(1,2) - v(1,2,2) - x(2,2) = 3
MCLinV(2,1,2):  - x(1,2) - v(2,1,2) + x(2,2) = 9
MCLin1(1,2,2):  u(1,2,2) >= -0
MCLin2(1,2,2):  -39 y(2,1,2) - u(1,2,2) <= -0
MCLin3(1,2,2):  29 y(2,1,2) + v(1,2,2) - u(1,2,2) <= 29
MCLin4(1,2,2):  29 y(2,1,2) - u(1,2,2) >= -0
MCLin5(1,2,2):  -39 y(2,1,2) + v(1,2,2) - u(1,2,2) >= -39
MCLin6(2,1,2):  u(2,1,2) >= -0
MCLin7(2,1,2):  -41 y(1,2,2) - u(2,1,2) <= -0
MCLin8(2,1,2):  27 y(1,2,2) + v(2,1,2) - u(2,1,2) <= 27
MCLin9(2,1,2):  27 y(1,2,2) - u(2,1,2) >= -0
MCLin10(2,1,2):  -41 y(1,2,2) + v(2,1,2) - u(2,1,2) >= -41
MCLinV(1,3,0):  x(1,0) - v(1,3,0) - x(3,0) = 7
MCLinV(3,1,0):  - x(1,0) - v(3,1,0) + x(3,0) = 1
MCLin1(1,3,0):  u(1,3,0) >= -0
MCLin2(1,3,0):  -47 y(3,1,0) - u(1,3,0) <= -0
MCLin3(1,3,0):  21 y(3,1,0) + v(1,3,0) - u(1,3,0) <= 21
MCLin4(1,3,0):  21 y(3,1,0) - u(1,3,0) >= -0
MCLin5(1,3,0):  -47 y(3,1,0) + v(1,3,0) - u(1,3,0) >= -47
MCLin6(3,1,0):  u(3,1,0) >= -0
MCLin7(3,1,0):  -29 y(1,3,0) - u(3,1,0) <= -0
MCLin8(3,1,0):  39 y(1,3,0) + v(3,1,0) - u(3,1,0) <= 39
MCLin9(3,1,0):  39 y(1,3,0) - u(3,1,0) >= -0
MCLin10(3,1,0):  -29 y(1,3,0) + v(3,1,0) - u(3,1,0) >= -29
MCLinV(1,3,1):  x(1,1) - v(1,3,1) - x(3,1) = 2
MCLinV(3,1,1):  - x(1,1) - v(3,1,1) + x(3,1) = 9
MCLin1(1,3,1):  u(1,3,1) >= -0
MCLin2(1,3,1):  -39 y(3,1,1) - u(1,3,1) <= -0
MCLin3(1,3,1):  29 y(3,1,1) + v(1,3,1) - u(1,3,1) <= 29
MCLin4(1,3,1):  29 y(3,1,1) - u(1,3,1) >= -0
MCLin5(1,3,1):  -39 y(3,1,1) + v(1,3,1) - u(1,3,1) >= -39
MCLin6(3,1,1):  u(3,1,1) >= -0
MCLin7(3,1,1):  -40 y(1,3,1) - u(3,1,1) <= -0
MCLin8(3,1,1):  28 y(1,3,1) + v(3,1,1) - u(3,1,1) <= 28
MCLin9(3,1,1):  28 y(1,3,1) - u(3,1,1) >= -0
MCLin10(3,1,1):  -40 y(1,3,1) + v(3,1,1) - u(3,1,1) >= -40
MCLinV(1,3,2):  x(1,2) - v(1,3,2) - x(3,2) = 2
MCLinV(3,1,2):  - x(1,2) - v(3,1,2) + x(3,2) = 9
MCLin1(1,3,2):  u(1,3,2) >= -0
MCLin2(1,3,2):  -39 y(3,1,2) - u(1,3,2) <= -0
MCLin3(1,3,2):  29 y(3,1,2) + v(1,3,2) - u(1,3,2) <= 29
MCLin4(1,3,2):  29 y(3,1,2) - u(1,3,2) >= -0
MCLin5(1,3,2):  -39 y(3,1,2) + v(1,3,2) - u(1,3,2) >= -39
MCLin6(3,1,2):  u(3,1,2) >= -0
MCLin7(3,1,2):  -40 y(1,3,2) - u(3,1,2) <= -0
MCLin8(3,1,2):  28 y(1,3,2) + v(3,1,2) - u(3,1,2) <= 28
MCLin9(3,1,2):  28 y(1,3,2) - u(3,1,2) >= -0
MCLin10(3,1,2):  -40 y(1,3,2) + v(3,1,2) - u(3,1,2) >= -40
MCLinV(2,3,0):  x(2,0) - v(2,3,0) - x(3,0) = 7
MCLinV(3,2,0):  - x(2,0) - v(3,2,0) + x(3,0) = 7
MCLin1(2,3,0):  u(2,3,0) >= -0
MCLin2(2,3,0):  -47 y(3,2,0) - u(2,3,0) <= -0
MCLin3(2,3,0):  29 y(3,2,0) + v(2,3,0) - u(2,3,0) <= 29
MCLin4(2,3,0):  29 y(3,2,0) - u(2,3,0) >= -0
MCLin5(2,3,0):  -47 y(3,2,0) + v(2,3,0) - u(2,3,0) >= -47
MCLin6(3,2,0):  u(3,2,0) >= -0
MCLin7(3,2,0):  -43 y(2,3,0) - u(3,2,0) <= -0
MCLin8(3,2,0):  33 y(2,3,0) + v(3,2,0) - u(3,2,0) <= 33
MCLin9(3,2,0):  33 y(2,3,0) - u(3,2,0) >= -0
MCLin10(3,2,0):  -43 y(2,3,0) + v(3,2,0) - u(3,2,0) >= -43
MCLinV(2,3,1):  x(2,1) - v(2,3,1) - x(3,1) = 2
MCLinV(3,2,1):  - x(2,1) - v(3,2,1) + x(3,1) = 1
MCLin1(2,3,1):  u(2,3,1) >= -0
MCLin2(2,3,1):  -33 y(3,2,1) - u(2,3,1) <= -0
MCLin3(2,3,1):  43 y(3,2,1) + v(2,3,1) - u(2,3,1) <= 43
MCLin4(2,3,1):  43 y(3,2,1) - u(2,3,1) >= -0
MCLin5(2,3,1):  -33 y(3,2,1) + v(2,3,1) - u(2,3,1) >= -33
MCLin6(3,2,1):  u(3,2,1) >= -0
MCLin7(3,2,1):  -46 y(2,3,1) - u(3,2,1) <= -0
MCLin8(3,2,1):  30 y(2,3,1) + v(3,2,1) - u(3,2,1) <= 30
MCLin9(3,2,1):  30 y(2,3,1) - u(3,2,1) >= -0
MCLin10(3,2,1):  -46 y(2,3,1) + v(3,2,1) - u(3,2,1) >= -46
MCLinV(2,3,2):  x(2,2) - v(2,3,2) - x(3,2) = 2
MCLinV(3,2,2):  - x(2,2) - v(3,2,2) + x(3,2) = 3
MCLin1(2,3,2):  u(2,3,2) >= -0
MCLin2(2,3,2):  -41 y(3,2,2) - u(2,3,2) <= -0
MCLin3(2,3,2):  35 y(3,2,2) + v(2,3,2) - u(2,3,2) <= 35
MCLin4(2,3,2):  35 y(3,2,2) - u(2,3,2) >= -0
MCLin5(2,3,2):  -41 y(3,2,2) + v(2,3,2) - u(2,3,2) >= -41
MCLin6(3,2,2):  u(3,2,2) >= -0
MCLin7(3,2,2):  -40 y(2,3,2) - u(3,2,2) <= -0
MCLin8(3,2,2):  36 y(2,3,2) + v(3,2,2) - u(3,2,2) <= 36
MCLin9(3,2,2):  36 y(2,3,2) - u(3,2,2) >= -0
MCLin10(3,2,2):  -40 y(2,3,2) + v(3,2,2) - u(3,2,2) >= -40
makespan(0):  C - x(0,2) >= 3
makespan(1):  C - x(1,2) >= 9
makespan(2):  C - x(2,2) >= 3
makespan(3):  C - x(3,2) >= 2
Bounds
 0 <= C <= 49
 3 <= x(0,0) <= 44
 0 <= y(0,1,0) <= 1
 0 <= y(1,0,0) <= 1
 -28 <= v(0,1,0) <= 43
 -46 <= v(1,0,0) <= 25
 -490 <= u(0,1,0)
 -490 <= u(1,0,0)
 0 <= y(0,2,0) <= 1
 0 <= y(2,0,0) <= 1
 -42 <= v(0,2,0) <= 37
 -46 <= v(2,0,0) <= 33
 -490 <= u(0,2,0)
 -490 <= u(2,0,0)
 0 <= y(0,3,0) <= 1
 0 <= y(3,0,0) <= 1
 -44 <= v(0,3,0) <= 35
 -44 <= v(3,0,0) <= 35
 -490 <= u(0,3,0)
 -490 <= u(3,0,0)
 0 <= x(1,0) <= 30
 0 <= y(1,2,0) <= 1
 0 <= y(2,1,0) <= 1
 -45 <= v(1,2,0) <= 23
 -31 <= v(2,1,0) <= 37
 -490 <= u(1,2,0)
 -490 <= u(2,1,0)
 0 <= y(1,3,0) <= 1
 0 <= y(3,1,0) <= 1
 -47 <= v(1,3,0) <= 21
 -29 <= v(3,1,0) <= 39
 -490 <= u(1,3,0)
 -490 <= u(3,1,0)
 0 <= x(2,0) <= 38
 0 <= y(2,3,0) <= 1
 0 <= y(3,2,0) <= 1
 -47 <= v(2,3,0) <= 29
 -43 <= v(3,2,0) <= 33
 -490 <= u(2,3,0)
 -490 <= u(3,2,0)
 2 <= x(3,0) <= 40
 0 <= x(0,1) <= 41
 0 <= y(0,1,1) <= 1
 0 <= y(1,0,1) <= 1
 -40 <= v(0,1,1) <= 31
 -43 <= v(1,0,1) <= 28
 -490 <= u(0,1,1)
 -490 <= u(1,0,1)
 0 <= y(0,2,1) <= 1
 0 <= y(2,0,1) <= 1
 -46 <= v(0,2,1) <= 33
 -37 <= v(2,0,1) <= 42
 -490 <= u(0,2,1)
 -490 <= u(2,0,1)
 0 <= y(0,3,1) <= 1
 0 <= y(3,0,1) <= 1
 -40 <= v(0,3,1) <= 39
 -44 <= v(3,0,1) <= 35
 -490 <= u(0,3,1)
 -490 <= u(3,0,1)
 1 <= x(1,1) <= 31
 0 <= y(1,2,1) <= 1
 0 <= y(2,1,1) <= 1
 -45 <= v(1,2,1) <= 23
 -33 <= v(2,1,1) <= 35
 -490 <= u(1,2,1)
 -490 <= u(2,1,1)
 0 <= y(1,3,1) <= 1
 0 <= y(3,1,1) <= 1
 -39 <= v(1,3,1) <= 29
 -40 <= v(3,1,1) <= 28
 -490 <= u(1,3,1)
 -490 <= u(3,1,1)
 7 <= x(2,1) <= 45
 0 <= y(2,3,1) <= 1
 0 <= y(3,2,1) <= 1
 -33 <= v(2,3,1) <= 43
 -46 <= v(3,2,1) <= 30
 -490 <= u(2,3,1)
 -490 <= u(3,2,1)
 0 <= x(3,1) <= 38
 5 <= x(0,2) <= 46
 0 <= y(0,1,2) <= 1
 0 <= y(1,0,2) <= 1
 -44 <= v(0,1,2) <= 27
 -39 <= v(1,0,2) <= 32
 -490 <= u(0,1,2)
 -490 <= u(1,0,2)
 0 <= y(0,2,2) <= 1
 0 <= y(2,0,2) <= 1
 -44 <= v(0,2,2) <= 35
 -41 <= v(2,0,2) <= 38
 -490 <= u(0,2,2)
 -490 <= u(2,0,2)
 0 <= y(0,3,2) <= 1
 0 <= y(3,0,2) <= 1
 -44 <= v(0,3,2) <= 35
 -40 <= v(3,0,2) <= 39
 -490 <= u(0,3,2)
 -490 <= u(3,0,2)
 10 <= x(1,2) <= 40
 0 <= y(1,2,2) <= 1
 0 <= y(2,1,2) <= 1
 -39 <= v(1,2,2) <= 29
 -41 <= v(2,1,2) <= 27
 -490 <= u(1,2,2)
 -490 <= u(2,1,2)
 0 <= y(1,3,2) <= 1
 0 <= y(3,1,2) <= 1
 -39 <= v(1,3,2) <= 29
 -40 <= v(3,1,2) <= 28
 -490 <= u(1,3,2)
 -490 <= u(3,1,2)
 8 <= x(2,2) <= 46
 0 <= y(2,3,2) <= 1
 0 <= y(3,2,2) <= 1
 -41 <= v(2,3,2) <= 35
 -40 <= v(3,2,2) <= 36
 -490 <= u(2,3,2)
 -490 <= u(3,2,2)
 9 <= x(3,2) <= 47
Integers
C x(0,0) y(0,1,0) y(1,0,0) v(0,1,0) v(1,0,0) u(0,1,0) u(1,0,0) y(0,2,0) y(2,0,0) 
v(0,2,0) v(2,0,0) u(0,2,0) u(2,0,0) y(0,3,0) y(3,0,0) v(0,3,0) v(3,0,0) u(0,3,0) u(3,0,0) 
x(1,0) y(1,2,0) y(2,1,0) v(1,2,0) v(2,1,0) u(1,2,0) u(2,1,0) y(1,3,0) y(3,1,0) v(1,3,0) 
v(3,1,0) u(1,3,0) u(3,1,0) x(2,0) y(2,3,0) y(3,2,0) v(2,3,0) v(3,2,0) u(2,3,0) u(3,2,0) 
x(3,0) x(0,1) y(0,1,1) y(1,0,1) v(0,1,1) v(1,0,1) u(0,1,1) u(1,0,1) y(0,2,1) y(2,0,1) 
v(0,2,1) v(2,0,1) u(0,2,1) u(2,0,1) y(0,3,1) y(3,0,1) v(0,3,1) v(3,0,1) u(0,3,1) u(3,0,1) 
x(1,1) y(1,2,1) y(2,1,1) v(1,2,1) v(2,1,1) u(1,2,1) u(2,1,1) y(1,3,1) y(3,1,1) v(1,3,1) 
v(3,1,1) u(1,3,1) u(3,1,1) x(2,1) y(2,3,1) y(3,2,1) v(2,3,1) v(3,2,1) u(2,3,1) u(3,2,1) 
x(3,1) x(0,2) y(0,1,2) y(1,0,2) v(0,1,2) v(1,0,2) u(0,1,2) u(1,0,2) y(0,2,2) y(2,0,2) 
v(0,2,2) v(2,0,2) u(0,2,2) u(2,0,2) y(0,3,2) y(3,0,2) v(0,3,2) v(3,0,2) u(0,3,2) u(3,0,2) 
x(1,2) y(1,2,2) y(2,1,2) v(1,2,2) v(2,1,2) u(1,2,2) u(2,1,2) y(1,3,2) y(3,1,2) v(1,3,2) 
v(3,1,2) u(1,3,2) u(3,1,2) x(2,2) y(2,3,2) y(3,2,2) v(2,3,2) v(3,2,2) u(2,3,2) u(3,2,2) 
x(3,2) 
End
